p cnf 319 1407
a 1 2 3 4 5 6 7 8 9 10 11 12 13 14 15 16 17 18 19 20 21 22 23 24 25 26 27 28 29 30 31 32 0
e 33 34 35 36 37 38 39 40 41 42 43 44 45 46 47 48 49 50 51 52 53 54 55 56 57 58 59 60 61 62 63 64 65 66 67 68 69 70 71 72 73 74 75 76 77 78 79 80 81 82 83 84 85 86 87 88 89 90 91 92 93 94 95 96 97 98 99 100 101 102 103 104 105 106 107 108 109 110 111 112 113 114 115 116 117 118 119 120 121 122 123 124 125 126 127 128 129 130 131 132 133 134 135 136 137 138 139 140 141 142 143 144 145 146 147 148 149 150 151 152 153 154 155 156 157 158 159 160 161 162 163 164 165 166 167 168 169 170 171 172 173 174 175 176 177 178 179 180 181 182 183 184 185 186 187 188 189 190 191 192 193 194 195 196 197 198 199 200 201 202 203 204 205 206 207 208 209 210 211 212 213 214 215 216 217 218 219 220 221 222 223 224 225 226 227 228 229 230 231 232 233 234 235 236 237 238 239 240 241 242 243 244 245 246 247 248 249 250 251 252 253 254 255 256 257 258 259 260 261 262 263 264 265 266 267 268 269 270 271 272 273 274 275 276 277 278 279 280 281 282 283 284 285 286 287 288 289 290 291 292 293 294 295 296 297 298 299 300 301 302 303 304 305 306 307 308 309 310 311 312 313 314 315 316 317 318 319 0
-57 -2 -1 0
-57 2 -1 0
-57 -2 1 0
-57 -3 -1 0
-57 -3 -2 1 0
-57 -3 2 1 0
57 3 2 1 0
-58 -5 -4 0
-58 5 -4 0
-58 -5 4 0
-58 -6 -4 0
-58 -6 -5 4 0
-58 -6 5 4 0
58 6 5 4 0
-59 58 -57 0
-59 -58 57 0
-59 58 57 0
-59 -8 -7 0
-59 8 -7 0
-59 -8 7 0
-60 -8 -7 0
59 -58 -57 8 7 0
60 8 -7 0
-60 8 7 0
61 -7 -1 0
61 -60 -8 7 -1 0
60 -8 7 -1 0
61 8 7 -1 0
60 -8 7 1 0
-62 -61 -2 -1 0
-61 -2 1 0
-61 2 1 0
62 61 -2 0
-62 61 2 0
-63 -62 -61 2 0
62 -61 2 0
-63 61 2 0
63 -61 -2 0
-63 61 -2 0
-63 61 2 0
64 -63 0
-64 63 0
-65 -64 -3 0
-65 64 3 0
65 64 -3 0
65 -64 3 0
-66 64 -3 0
-66 -64 3 0
-66 64 3 0
67 -66 -64 -3 0
66 -64 -3 0
67 -66 64 -3 0
67 -66 3 0
-68 -66 -60 0
-67 66 -60 0
-68 67 66 -60 0
-67 66 60 0
-68 -1 0
68 60 1 0
-69 60 -1 0
-69 -60 1 0
-69 60 1 0
70 -69 -68 -60 -1 0
69 -68 -60 -1 0
69 68 -60 -1 0
70 -68 60 -1 0
70 -68 1 0
70 -69 -68 0
70 -69 68 0
-70 69 68 0
-71 -62 -60 0
-71 62 -60 0
-71 62 60 0
-72 -71 -62 60 0
71 -62 60 0
-72 62 60 0
72 -60 -2 0
-72 2 0
73 -72 -71 0
73 72 -71 0
73 -72 71 0
-74 -71 -60 0
-74 -72 71 -60 0
-73 72 71 -60 0
-74 73 72 71 -60 0
-73 72 71 60 0
-74 65 -60 0
74 -65 60 0
-74 65 60 0
-75 60 -3 0
-75 -60 3 0
-75 60 3 0
76 -75 -74 -60 -3 0
75 -74 -60 -3 0
75 74 -60 -3 0
76 -74 60 -3 0
76 -74 3 0
76 -75 -74 0
76 -75 74 0
-76 75 74 0
-77 -70 -9 0
-77 70 9 0
77 70 -9 0
77 -70 9 0
-78 -73 -10 0
-78 73 10 0
78 73 -10 0
78 -73 10 0
-79 -76 -11 0
-79 76 11 0
79 76 -11 0
79 -76 11 0
-80 -78 -77 0
-80 78 -77 0
-80 -78 77 0
-80 -79 -77 0
-80 -79 -78 77 0
-80 -79 78 77 0
80 79 78 77 0
81 -4 0
-81 4 0
-82 -81 -5 0
-82 81 5 0
82 81 -5 0
82 -81 5 0
-83 81 -5 0
-83 -81 5 0
-83 81 5 0
84 -83 -81 -5 0
83 -81 -5 0
84 -83 81 -5 0
84 -83 5 0
-85 -84 -83 -6 0
-84 83 -6 0
-84 83 6 0
85 84 -6 0
-85 84 6 0
-86 -85 -84 6 0
85 -84 6 0
-86 84 6 0
86 -84 -6 0
-86 84 -6 0
-86 84 6 0
87 -86 0
-87 86 0
-88 -60 -4 0
-88 -60 4 0
-88 60 4 0
-89 -88 60 -4 0
88 60 -4 0
-89 60 4 0
-89 -4 0
89 -60 4 0
90 -89 -88 0
90 89 -88 0
90 -89 88 0
-91 -88 -60 0
-91 -89 88 -60 0
-90 89 88 -60 0
-91 90 89 88 -60 0
-90 89 88 60 0
91 60 -5 0
-91 5 0
-92 82 -60 0
-92 -82 60 0
-92 82 60 0
93 -92 -91 -82 -60 0
92 -91 -82 -60 0
92 91 -82 -60 0
93 -91 82 -60 0
93 -91 60 0
93 -92 -91 0
93 -92 91 0
-93 92 91 0
-94 -60 -6 0
-94 -60 6 0
-94 60 6 0
-95 -94 60 -6 0
94 60 -6 0
-95 60 6 0
95 -85 -60 0
-95 85 -60 0
-95 85 60 0
96 -95 -94 0
96 95 -94 0
96 -95 94 0
-97 -94 -90 -12 0
-97 -95 94 -90 -12 0
-96 95 94 -90 -12 0
-97 96 95 94 -90 -12 0
-96 95 94 90 -12 0
-96 95 94 12 0
97 90 -12 0
-97 90 12 0
-98 -93 -13 -12 0
-98 -97 -93 -90 -13 12 0
97 -93 -90 -13 12 0
97 93 -90 -13 12 0
-98 -93 90 -13 12 0
97 -90 13 12 0
98 93 -13 0
-98 93 13 0
-99 -96 -14 -13 0
-99 -98 -96 -93 -14 13 0
98 -96 -93 -14 13 0
98 96 -93 -14 13 0
-99 -96 93 -14 13 0
98 -93 14 13 0
99 96 -14 0
-99 96 14 0
-100 -97 -14 0
-100 -99 -97 -96 14 0
99 -97 -96 14 0
99 97 -96 14 0
-100 -97 96 14 0
-100 -99 -98 0
-100 99 -98 0
-100 -99 98 0
100 99 98 97 -8 0
-101 -97 -15 8 0
-101 -98 97 -15 8 0
-101 -99 98 97 -15 8 0
-101 -100 99 98 97 -15 8 0
100 99 98 97 -15 8 0
100 99 98 97 15 8 0
101 -15 -8 0
-101 15 -8 0
-102 -16 -8 -7 0
-102 -16 -15 8 -7 0
-102 -101 -16 15 8 -7 0
101 -16 15 8 -7 0
101 16 15 8 -7 0
101 15 8 7 0
102 -16 7 0
-102 16 7 0
-103 80 -16 -7 0
102 -80 16 -7 0
-103 -102 80 16 -7 0
102 80 16 -7 0
-103 80 7 0
-103 -101 -100 0
-103 -101 100 0
-103 101 100 0
-103 -102 -101 -100 -80 0
-103 -102 101 -100 -80 0
103 102 101 -100 -80 0
-103 -102 100 -80 0
-103 -102 80 0
-104 -16 -15 0
-104 16 15 0
104 16 -15 0
104 -16 15 0
105 -9 0
-105 9 0
-106 -105 -10 0
-106 105 10 0
106 105 -10 0
106 -105 10 0
-107 105 -10 0
-107 -105 10 0
-107 105 10 0
108 -107 -105 -10 0
107 -105 -10 0
108 -107 105 -10 0
108 -107 10 0
-109 -108 -107 -11 0
-108 107 -11 0
-108 107 11 0
109 108 -11 0
-109 108 11 0
-110 -109 -108 11 0
109 -108 11 0
-110 108 11 0
110 -108 -11 0
-110 108 -11 0
-110 108 11 0
111 -110 0
-111 110 0
-112 -104 -9 0
-112 104 -9 0
-112 -104 9 0
-113 104 -9 0
-113 -112 104 9 0
112 104 9 0
113 -104 -9 0
-113 9 0
114 -113 -112 0
114 113 -112 0
114 -113 112 0
-115 -112 -104 0
-115 -113 112 -104 0
-114 113 112 -104 0
-115 114 113 112 -104 0
-114 113 112 104 0
-115 106 -104 0
115 -106 104 0
-115 106 104 0
-116 104 -10 0
-116 -104 10 0
-116 104 10 0
117 -116 -115 -104 -10 0
116 -115 -104 -10 0
116 115 -104 -10 0
117 -115 104 -10 0
117 -115 10 0
117 -116 -115 0
117 -116 115 0
-117 116 115 0
-118 -109 -104 0
-118 109 -104 0
-118 109 104 0
-119 -118 -109 104 0
118 -109 104 0
-119 109 104 0
119 -104 -11 0
-119 11 0
120 -119 -118 0
120 119 -118 0
120 -119 118 0
-121 -118 -114 -17 0
-121 -119 118 -114 -17 0
-120 119 118 -114 -17 0
-121 120 119 118 -114 -17 0
-120 119 118 114 -17 0
-120 119 118 17 0
121 114 -17 0
-121 114 17 0
-122 -117 -18 -17 0
-122 -121 -117 -114 -18 17 0
121 -117 -114 -18 17 0
121 117 -114 -18 17 0
-122 -117 114 -18 17 0
121 -114 18 17 0
122 117 -18 0
-122 117 18 0
-123 -120 -19 -18 0
-123 -122 -120 -117 -19 18 0
122 -120 -117 -19 18 0
122 120 -117 -19 18 0
-123 -120 117 -19 18 0
122 -117 19 18 0
123 120 -19 0
-123 120 19 0
-124 -121 -19 0
-124 -123 -121 -120 19 0
123 -121 -120 19 0
123 121 -120 19 0
-124 -121 120 19 0
-124 -123 -122 0
-124 123 -122 0
-124 -123 122 0
125 -121 -12 0
125 -122 121 -12 0
125 -123 122 121 -12 0
125 -124 123 122 121 -12 0
124 123 122 121 -12 0
124 123 122 121 12 0
-126 -125 -13 -12 0
-125 -13 12 0
-125 13 12 0
126 125 -13 0
-126 125 13 0
-127 -126 -125 13 0
126 -125 13 0
-127 125 13 0
127 -125 -13 0
-127 125 -13 0
-127 125 13 0
128 -127 0
-128 127 0
-129 -128 -14 0
-129 128 14 0
129 128 -14 0
129 -128 14 0
-130 128 -14 0
-130 -128 14 0
-130 128 14 0
131 -130 -128 -14 0
130 -128 -14 0
131 -130 128 -14 0
131 -130 14 0
-132 -130 -104 0
-131 130 -104 0
-132 131 130 -104 0
-131 130 104 0
132 104 -12 0
-132 12 0
-133 -104 -12 0
-133 104 -12 0
-133 104 12 0
134 -132 -12 0
134 -133 -132 -104 12 0
133 -132 -104 12 0
133 132 -104 12 0
134 -132 104 12 0
134 -133 -132 0
134 -133 132 0
-134 133 132 0
-135 -104 -13 0
-135 -104 13 0
-135 104 13 0
-136 -135 104 -13 0
135 104 -13 0
-136 104 13 0
136 -126 -104 0
-136 126 -104 0
-136 126 104 0
137 -136 -135 0
137 136 -135 0
137 -136 135 0
-138 -135 -104 0
-138 -136 135 -104 0
-137 136 135 -104 0
-138 137 136 135 -104 0
-137 136 135 104 0
138 104 -14 0
-138 14 0
-139 129 -104 0
-139 -129 104 0
-139 129 104 0
140 -139 -138 -129 -104 0
139 -138 -129 -104 0
139 138 -129 -104 0
140 -138 129 -104 0
140 -138 104 0
140 -139 -138 0
140 -139 138 0
-140 139 138 0
-141 -134 -20 0
-141 134 20 0
141 134 -20 0
141 -134 20 0
-142 -137 -21 0
-142 137 21 0
142 137 -21 0
142 -137 21 0
-143 -140 -22 0
-143 140 22 0
143 140 -22 0
143 -140 22 0
-144 -142 -141 0
-144 142 -141 0
-144 -142 141 0
-144 -143 -141 0
-144 -143 -142 141 0
-144 -143 142 141 0
144 143 142 141 0
-145 23 -16 0
-145 -23 16 0
145 -23 -16 0
145 23 16 0
-146 -24 -15 0
-146 24 15 0
146 24 -15 0
146 -24 15 0
-147 144 -124 0
-147 -144 124 0
-147 144 124 0
-147 -146 -145 0
-147 146 -145 0
-147 -146 145 0
-148 -145 -144 -124 -24 -23 0
-148 -146 145 -144 -124 -24 -23 0
-148 -147 146 145 -144 -124 -24 -23 0
147 146 145 -144 -124 -24 -23 0
-148 144 -124 -24 -23 0
-148 124 -24 -23 0
147 146 145 -144 -124 24 -23 0
147 146 145 -144 -124 23 0
148 24 -23 0
-148 24 23 0
149 -23 -17 0
149 -148 -24 23 -17 0
148 -24 23 -17 0
149 24 23 -17 0
148 -24 23 17 0
-150 -149 -18 -17 0
-149 -18 17 0
-149 18 17 0
150 149 -18 0
-150 149 18 0
-151 -150 -149 18 0
150 -149 18 0
-151 149 18 0
151 -149 -18 0
-151 149 -18 0
-151 149 18 0
152 -151 0
-152 151 0
-153 -152 -19 0
-153 152 19 0
153 152 -19 0
153 -152 19 0
-154 152 -19 0
-154 -152 19 0
-154 152 19 0
155 -154 -152 -19 0
154 -152 -19 0
155 -154 152 -19 0
155 -154 19 0
-156 -154 -148 0
-155 154 -148 0
-156 155 154 -148 0
-155 154 148 0
-156 -17 0
156 148 17 0
-157 148 -17 0
-157 -148 17 0
-157 148 17 0
158 -157 -156 -148 -17 0
157 -156 -148 -17 0
157 156 -148 -17 0
158 -156 148 -17 0
158 -156 17 0
158 -157 -156 0
158 -157 156 0
-158 157 156 0
-159 -150 -148 0
-159 150 -148 0
-159 150 148 0
-160 -159 -150 148 0
159 -150 148 0
-160 150 148 0
160 -148 -18 0
-160 18 0
161 -160 -159 0
161 160 -159 0
161 -160 159 0
-162 -159 -148 0
-162 -160 159 -148 0
-161 160 159 -148 0
-162 161 160 159 -148 0
-161 160 159 148 0
-162 153 -148 0
162 -153 148 0
-162 153 148 0
-163 148 -19 0
-163 -148 19 0
-163 148 19 0
164 -163 -162 -148 -19 0
163 -162 -148 -19 0
163 162 -148 -19 0
164 -162 148 -19 0
164 -162 19 0
164 -163 -162 0
164 -163 162 0
-164 163 162 0
-165 -158 -25 0
-165 158 25 0
165 158 -25 0
165 -158 25 0
-166 -161 -26 0
-166 161 26 0
166 161 -26 0
166 -161 26 0
-167 -164 -27 0
-167 164 27 0
167 164 -27 0
167 -164 27 0
-168 -166 -165 0
-168 166 -165 0
-168 -166 165 0
-168 -167 -165 0
-168 -167 -166 165 0
-168 -167 166 165 0
168 167 166 165 0
169 -20 0
-169 20 0
-170 -169 -21 0
-170 169 21 0
170 169 -21 0
170 -169 21 0
-171 169 -21 0
-171 -169 21 0
-171 169 21 0
172 -171 -169 -21 0
171 -169 -21 0
172 -171 169 -21 0
172 -171 21 0
-173 -172 -171 -22 0
-172 171 -22 0
-172 171 22 0
173 172 -22 0
-173 172 22 0
-174 -173 -172 22 0
173 -172 22 0
-174 172 22 0
174 -172 -22 0
-174 172 -22 0
-174 172 22 0
175 -174 0
-175 174 0
-176 -148 -20 0
-176 -148 20 0
-176 148 20 0
-177 -176 148 -20 0
176 148 -20 0
-177 148 20 0
-177 -20 0
177 -148 20 0
178 -177 -176 0
178 177 -176 0
178 -177 176 0
-179 -176 -148 0
-179 -177 176 -148 0
-178 177 176 -148 0
-179 178 177 176 -148 0
-178 177 176 148 0
179 148 -21 0
-179 21 0
-180 170 -148 0
-180 -170 148 0
-180 170 148 0
181 -180 -179 -170 -148 0
180 -179 -170 -148 0
180 179 -170 -148 0
181 -179 170 -148 0
181 -179 148 0
181 -180 -179 0
181 -180 179 0
-181 180 179 0
-182 -148 -22 0
-182 -148 22 0
-182 148 22 0
-183 -182 148 -22 0
182 148 -22 0
-183 148 22 0
183 -173 -148 0
-183 173 -148 0
-183 173 148 0
184 -183 -182 0
184 183 -182 0
184 -183 182 0
-185 -182 -178 -28 0
-185 -183 182 -178 -28 0
-184 183 182 -178 -28 0
-185 184 183 182 -178 -28 0
-184 183 182 178 -28 0
-184 183 182 28 0
185 178 -28 0
-185 178 28 0
-186 -181 -29 -28 0
-186 -185 -181 -178 -29 28 0
185 -181 -178 -29 28 0
185 181 -178 -29 28 0
-186 -181 178 -29 28 0
185 -178 29 28 0
186 181 -29 0
-186 181 29 0
-187 -184 -30 -29 0
-187 -186 -184 -181 -30 29 0
186 -184 -181 -30 29 0
186 184 -181 -30 29 0
-187 -184 181 -30 29 0
186 -181 30 29 0
187 184 -30 0
-187 184 30 0
-188 -185 -30 0
-188 -187 -185 -184 30 0
187 -185 -184 30 0
187 185 -184 30 0
-188 -185 184 30 0
-188 -187 -186 0
-188 187 -186 0
-188 -187 186 0
188 187 186 185 -24 0
-189 -185 -31 24 0
-189 -186 185 -31 24 0
-189 -187 186 185 -31 24 0
-189 -188 187 186 185 -31 24 0
188 187 186 185 -31 24 0
188 187 186 185 31 24 0
189 -31 -24 0
-189 31 -24 0
-190 -32 -24 -23 0
-190 -32 -31 24 -23 0
-190 -189 -32 31 24 -23 0
189 -32 31 24 -23 0
189 32 31 24 -23 0
189 31 24 23 0
190 -32 23 0
-190 32 23 0
-191 168 -32 -23 0
190 -168 32 -23 0
-191 -190 168 32 -23 0
190 168 32 -23 0
-191 168 23 0
-191 -189 -188 0
-191 -189 188 0
-191 189 188 0
-191 -190 -189 -188 -168 0
-191 -190 189 -188 -168 0
191 190 189 -188 -168 0
-191 -190 188 -168 0
-191 -190 168 0
-192 103 -59 0
-192 -103 59 0
-192 103 59 0
-192 191 -147 0
-192 -191 147 0
-192 191 147 0
-193 -192 -191 -147 -103 -59 -33 0
192 -191 -147 -103 -59 -33 0
-193 191 -147 -103 -59 -33 0
-193 147 -103 -59 -33 0
-193 103 -59 -33 0
-193 59 -33 0
192 -191 -147 -103 -59 33 0
-193 -35 -34 0
-193 35 -34 0
-193 -35 34 0
-194 -36 -33 0
-194 -36 -34 33 0
-194 -36 -35 34 33 0
-194 -193 -36 35 34 33 0
193 -36 35 34 33 0
193 36 35 34 33 0
-194 -38 -37 0
-194 38 -37 0
-194 -38 37 0
-195 193 -36 0
-195 193 -37 36 0
-195 193 -38 37 36 0
194 -193 38 37 36 0
-195 -194 193 38 37 36 0
194 193 38 37 36 0
-195 -194 -39 0
-195 194 -39 0
-195 194 39 0
-195 -40 -39 0
-195 -40 39 0
195 -194 -193 40 39 0
-196 -40 -39 0
-196 40 39 0
196 40 -39 0
196 -40 39 0
197 -33 0
-197 33 0
-198 -197 -34 0
-198 197 34 0
198 197 -34 0
198 -197 34 0
-199 197 -34 0
-199 -197 34 0
-199 197 34 0
200 -199 -197 -34 0
199 -197 -34 0
200 -199 197 -34 0
200 -199 34 0
-201 -200 -199 -35 0
-200 199 -35 0
-200 199 35 0
201 200 -35 0
-201 200 35 0
-202 -201 -200 35 0
201 -200 35 0
-202 200 35 0
202 -200 -35 0
-202 200 -35 0
-202 200 35 0
203 -202 0
-203 202 0
-204 -196 -33 0
-204 196 -33 0
-204 -196 33 0
-205 196 -33 0
-205 -204 196 33 0
204 196 33 0
205 -196 -33 0
-205 33 0
206 -205 -204 0
206 205 -204 0
206 -205 204 0
-207 -204 -196 0
-207 -205 204 -196 0
-206 205 204 -196 0
-207 206 205 204 -196 0
-206 205 204 196 0
-207 198 -196 0
207 -198 196 0
-207 198 196 0
-208 196 -34 0
-208 -196 34 0
-208 196 34 0
209 -208 -207 -196 -34 0
208 -207 -196 -34 0
208 207 -196 -34 0
209 -207 196 -34 0
209 -207 34 0
209 -208 -207 0
209 -208 207 0
-209 208 207 0
-210 -201 -196 0
-210 201 -196 0
-210 201 196 0
-211 -210 -201 196 0
210 -201 196 0
-211 201 196 0
211 -196 -35 0
-211 35 0
212 -211 -210 0
212 211 -210 0
212 -211 210 0
-213 -210 -206 -41 0
-213 -211 210 -206 -41 0
-212 211 210 -206 -41 0
-213 212 211 210 -206 -41 0
-212 211 210 206 -41 0
-212 211 210 41 0
213 206 -41 0
-213 206 41 0
-214 -209 -42 -41 0
-214 -213 -209 -206 -42 41 0
213 -209 -206 -42 41 0
213 209 -206 -42 41 0
-214 -209 206 -42 41 0
213 -206 42 41 0
214 209 -42 0
-214 209 42 0
-215 -212 -43 -42 0
-215 -214 -212 -209 -43 42 0
214 -212 -209 -43 42 0
214 212 -209 -43 42 0
-215 -212 209 -43 42 0
214 -209 43 42 0
215 212 -43 0
-215 212 43 0
-216 -213 -43 0
-216 -215 -213 -212 43 0
215 -213 -212 43 0
215 213 -212 43 0
-216 -213 212 43 0
-216 -215 -214 0
-216 215 -214 0
-216 -215 214 0
217 -213 -36 0
217 -214 213 -36 0
217 -215 214 213 -36 0
217 -216 215 214 213 -36 0
216 215 214 213 -36 0
216 215 214 213 36 0
-218 -217 -37 -36 0
-217 -37 36 0
-217 37 36 0
218 217 -37 0
-218 217 37 0
-219 -218 -217 37 0
218 -217 37 0
-219 217 37 0
219 -217 -37 0
-219 217 -37 0
-219 217 37 0
220 -219 0
-220 219 0
-221 -220 -38 0
-221 220 38 0
221 220 -38 0
221 -220 38 0
-222 220 -38 0
-222 -220 38 0
-222 220 38 0
223 -222 -220 -38 0
222 -220 -38 0
223 -222 220 -38 0
223 -222 38 0
-224 -222 -196 0
-223 222 -196 0
-224 223 222 -196 0
-223 222 196 0
224 196 -36 0
-224 36 0
-225 -196 -36 0
-225 196 -36 0
-225 196 36 0
226 -224 -36 0
226 -225 -224 -196 36 0
225 -224 -196 36 0
225 224 -196 36 0
226 -224 196 36 0
226 -225 -224 0
226 -225 224 0
-226 225 224 0
-227 -196 -37 0
-227 -196 37 0
-227 196 37 0
-228 -227 196 -37 0
227 196 -37 0
-228 196 37 0
228 -218 -196 0
-228 218 -196 0
-228 218 196 0
229 -228 -227 0
229 228 -227 0
229 -228 227 0
-230 -227 -196 0
-230 -228 227 -196 0
-229 228 227 -196 0
-230 229 228 227 -196 0
-229 228 227 196 0
230 196 -38 0
-230 38 0
-231 221 -196 0
-231 -221 196 0
-231 221 196 0
232 -231 -230 -221 -196 0
231 -230 -221 -196 0
231 230 -221 -196 0
232 -230 221 -196 0
232 -230 196 0
232 -231 -230 0
232 -231 230 0
-232 231 230 0
-233 -226 -44 0
-233 226 44 0
233 226 -44 0
233 -226 44 0
-234 -229 -45 0
-234 229 45 0
234 229 -45 0
234 -229 45 0
-235 -232 -46 0
-235 232 46 0
235 232 -46 0
235 -232 46 0
-236 -234 -233 0
-236 234 -233 0
-236 -234 233 0
-236 -235 -233 0
-236 -235 -234 233 0
-236 -235 234 233 0
236 235 234 233 0
-237 47 -40 0
-237 -47 40 0
237 -47 -40 0
237 47 40 0
-238 -48 -39 0
-238 48 39 0
238 48 -39 0
238 -48 39 0
-239 236 -216 0
-239 -236 216 0
-239 236 216 0
-239 -238 -237 0
-239 238 -237 0
-239 -238 237 0
-240 -237 -236 -216 -48 -47 0
-240 -238 237 -236 -216 -48 -47 0
-240 -239 238 237 -236 -216 -48 -47 0
239 238 237 -236 -216 -48 -47 0
-240 236 -216 -48 -47 0
-240 216 -48 -47 0
239 238 237 -236 -216 48 -47 0
239 238 237 -236 -216 47 0
240 48 -47 0
-240 48 47 0
241 -47 -41 0
241 -240 -48 47 -41 0
240 -48 47 -41 0
241 48 47 -41 0
240 -48 47 41 0
-242 -241 -42 -41 0
-241 -42 41 0
-241 42 41 0
242 241 -42 0
-242 241 42 0
-243 -242 -241 42 0
242 -241 42 0
-243 241 42 0
243 -241 -42 0
-243 241 -42 0
-243 241 42 0
244 -243 0
-244 243 0
-245 -244 -43 0
-245 244 43 0
245 244 -43 0
245 -244 43 0
-246 244 -43 0
-246 -244 43 0
-246 244 43 0
247 -246 -244 -43 0
246 -244 -43 0
247 -246 244 -43 0
247 -246 43 0
-248 -246 -240 0
-247 246 -240 0
-248 247 246 -240 0
-247 246 240 0
-248 -41 0
248 240 41 0
-249 240 -41 0
-249 -240 41 0
-249 240 41 0
250 -249 -248 -240 -41 0
249 -248 -240 -41 0
249 248 -240 -41 0
250 -248 240 -41 0
250 -248 41 0
250 -249 -248 0
250 -249 248 0
-250 249 248 0
-251 -242 -240 0
-251 242 -240 0
-251 242 240 0
-252 -251 -242 240 0
251 -242 240 0
-252 242 240 0
252 -240 -42 0
-252 42 0
253 -252 -251 0
253 252 -251 0
253 -252 251 0
-254 -251 -240 0
-254 -252 251 -240 0
-253 252 251 -240 0
-254 253 252 251 -240 0
-253 252 251 240 0
-254 245 -240 0
254 -245 240 0
-254 245 240 0
-255 240 -43 0
-255 -240 43 0
-255 240 43 0
256 -255 -254 -240 -43 0
255 -254 -240 -43 0
255 254 -240 -43 0
256 -254 240 -43 0
256 -254 43 0
256 -255 -254 0
256 -255 254 0
-256 255 254 0
-257 -250 -49 0
-257 250 49 0
257 250 -49 0
257 -250 49 0
-258 -253 -50 0
-258 253 50 0
258 253 -50 0
258 -253 50 0
-259 -256 -51 0
-259 256 51 0
259 256 -51 0
259 -256 51 0
-260 -258 -257 0
-260 258 -257 0
-260 -258 257 0
-260 -259 -257 0
-260 -259 -258 257 0
-260 -259 258 257 0
260 259 258 257 0
261 -44 0
-261 44 0
-262 -261 -45 0
-262 261 45 0
262 261 -45 0
262 -261 45 0
-263 261 -45 0
-263 -261 45 0
-263 261 45 0
264 -263 -261 -45 0
263 -261 -45 0
264 -263 261 -45 0
264 -263 45 0
-265 -264 -263 -46 0
-264 263 -46 0
-264 263 46 0
265 264 -46 0
-265 264 46 0
-266 -265 -264 46 0
265 -264 46 0
-266 264 46 0
266 -264 -46 0
-266 264 -46 0
-266 264 46 0
267 -266 0
-267 266 0
-268 -240 -44 0
-268 -240 44 0
-268 240 44 0
-269 -268 240 -44 0
268 240 -44 0
-269 240 44 0
-269 -44 0
269 -240 44 0
270 -269 -268 0
270 269 -268 0
270 -269 268 0
-271 -268 -240 0
-271 -269 268 -240 0
-270 269 268 -240 0
-271 270 269 268 -240 0
-270 269 268 240 0
271 240 -45 0
-271 45 0
-272 262 -240 0
-272 -262 240 0
-272 262 240 0
273 -272 -271 -262 -240 0
272 -271 -262 -240 0
272 271 -262 -240 0
273 -271 262 -240 0
273 -271 240 0
273 -272 -271 0
273 -272 271 0
-273 272 271 0
-274 -240 -46 0
-274 -240 46 0
-274 240 46 0
-275 -274 240 -46 0
274 240 -46 0
-275 240 46 0
275 -265 -240 0
-275 265 -240 0
-275 265 240 0
276 -275 -274 0
276 275 -274 0
276 -275 274 0
-277 -274 -270 -52 0
-277 -275 274 -270 -52 0
-276 275 274 -270 -52 0
-277 276 275 274 -270 -52 0
-276 275 274 270 -52 0
-276 275 274 52 0
277 270 -52 0
-277 270 52 0
-278 -273 -53 -52 0
-278 -277 -273 -270 -53 52 0
277 -273 -270 -53 52 0
277 273 -270 -53 52 0
-278 -273 270 -53 52 0
277 -270 53 52 0
278 273 -53 0
-278 273 53 0
-279 -276 -54 -53 0
-279 -278 -276 -273 -54 53 0
278 -276 -273 -54 53 0
278 276 -273 -54 53 0
-279 -276 273 -54 53 0
278 -273 54 53 0
279 276 -54 0
-279 276 54 0
-280 -277 -54 0
-280 -279 -277 -276 54 0
279 -277 -276 54 0
279 277 -276 54 0
-280 -277 276 54 0
-280 -279 -278 0
-280 279 -278 0
-280 -279 278 0
280 279 278 277 -48 0
-281 -277 -55 48 0
-281 -278 277 -55 48 0
-281 -279 278 277 -55 48 0
-281 -280 279 278 277 -55 48 0
280 279 278 277 -55 48 0
280 279 278 277 55 48 0
281 -55 -48 0
-281 55 -48 0
-282 -56 -48 -47 0
-282 -56 -55 48 -47 0
-282 -281 -56 55 48 -47 0
281 -56 55 48 -47 0
281 56 55 48 -47 0
281 55 48 47 0
282 -56 47 0
-282 56 47 0
-283 260 -56 -47 0
282 -260 56 -47 0
-283 -282 260 56 -47 0
282 260 56 -47 0
-283 260 47 0
-283 -281 -280 0
-283 -281 280 0
-283 281 280 0
-283 -282 -281 -280 -260 0
-283 -282 281 -280 -260 0
283 282 281 -280 -260 0
-283 -282 280 -260 0
-283 -282 260 0
-284 239 -195 0
-284 -239 195 0
-284 239 195 0
284 -283 -239 -195 0
-284 283 -239 -195 0
-284 283 239 -195 0
-284 283 195 0
-285 -33 -25 0
-285 33 25 0
285 33 -25 0
285 -33 25 0
-286 -34 -26 0
-286 34 26 0
286 34 -26 0
286 -34 26 0
-287 -35 -27 0
-287 35 27 0
287 35 -27 0
287 -35 27 0
-288 -286 -285 0
-288 286 -285 0
-288 -286 285 0
-288 -287 -285 0
-288 -287 -286 285 0
-288 -287 286 285 0
288 287 286 285 0
-289 -36 -28 0
-289 36 28 0
289 36 -28 0
289 -36 28 0
-290 -37 -29 0
-290 37 29 0
290 37 -29 0
290 -37 29 0
-291 -38 -30 0
-291 38 30 0
291 38 -30 0
291 -38 30 0
-292 -290 -289 0
-292 290 -289 0
-292 -290 289 0
-292 -291 -289 0
-292 -291 -290 289 0
-292 -291 290 289 0
292 291 290 289 0
-293 -39 -31 0
-293 39 31 0
293 39 -31 0
293 -39 31 0
-294 -40 -32 0
-294 40 32 0
294 40 -32 0
294 -40 32 0
-295 292 -288 0
-295 -292 288 0
-295 292 288 0
-295 -294 -293 0
-295 294 -293 0
-295 -294 293 0
-296 -293 -292 -288 -41 -25 0
-296 -294 293 -292 -288 -41 -25 0
-296 -295 294 293 -292 -288 -41 -25 0
295 294 293 -292 -288 -41 -25 0
-296 292 -288 -41 -25 0
-296 288 -41 -25 0
295 294 293 -292 -288 41 -25 0
295 294 293 -292 -288 25 0
296 41 -25 0
-296 41 25 0
-297 -42 -26 -25 0
-297 -296 -42 -41 -26 25 0
296 -42 -41 -26 25 0
296 42 -41 -26 25 0
-297 -42 41 -26 25 0
296 -41 26 25 0
297 42 -26 0
-297 42 26 0
-298 -43 -27 -26 0
-298 -297 -43 -42 -27 26 0
297 -43 -42 -27 26 0
297 43 -42 -27 26 0
-298 -43 42 -27 26 0
297 -42 27 26 0
298 43 -27 0
-298 43 27 0
-299 -296 -27 0
-299 -298 -296 -43 27 0
298 -296 -43 27 0
298 296 -43 27 0
-299 -296 43 27 0
-299 -298 -297 0
-299 298 -297 0
-299 -298 297 0
-300 -296 -44 -28 0
-300 -297 296 -44 -28 0
-300 -298 297 296 -44 -28 0
-300 -299 298 297 296 -44 -28 0
299 298 297 296 -44 -28 0
299 298 297 296 44 -28 0
299 298 297 296 28 0
300 44 -28 0
-300 44 28 0
-301 -45 -29 -28 0
-301 -300 -45 -44 -29 28 0
300 -45 -44 -29 28 0
300 45 -44 -29 28 0
-301 -45 44 -29 28 0
300 -44 29 28 0
301 45 -29 0
-301 45 29 0
-302 -46 -30 -29 0
-302 -301 -46 -45 -30 29 0
301 -46 -45 -30 29 0
301 46 -45 -30 29 0
-302 -46 45 -30 29 0
301 -45 30 29 0
302 46 -30 0
-302 46 30 0
-303 -300 -30 0
-303 -302 -300 -46 30 0
302 -300 -46 30 0
302 300 -46 30 0
-303 -300 46 30 0
-303 -302 -301 0
-303 302 -301 0
-303 -302 301 0
-304 -300 -47 -31 0
-304 -301 300 -47 -31 0
-304 -302 301 300 -47 -31 0
-304 -303 302 301 300 -47 -31 0
303 302 301 300 -47 -31 0
303 302 301 300 47 -31 0
303 302 301 300 31 0
304 47 -31 0
-304 47 31 0
-305 -48 -32 -31 0
-305 -304 -48 -47 -32 31 0
304 -48 -47 -32 31 0
304 48 -47 -32 31 0
-305 -48 47 -32 31 0
304 -47 32 31 0
305 48 -32 0
-305 48 32 0
-306 299 -32 0
305 -299 -48 32 0
-306 -305 299 -48 32 0
305 299 -48 32 0
-306 299 48 32 0
-306 -304 -303 0
-306 -304 303 0
-306 304 303 0
-306 -305 -304 -303 -299 0
-306 -305 304 -303 -299 0
306 305 304 -303 -299 0
-306 -305 303 -299 0
-306 -305 299 0
-307 -49 -25 0
-307 49 25 0
307 49 -25 0
307 -49 25 0
-308 -50 -26 0
-308 50 26 0
308 50 -26 0
308 -50 26 0
-309 -51 -27 0
-309 51 27 0
309 51 -27 0
309 -51 27 0
-310 -308 -307 0
-310 308 -307 0
-310 -308 307 0
-310 -309 -307 0
-310 -309 -308 307 0
-310 -309 308 307 0
310 309 308 307 0
-311 -52 -28 0
-311 52 28 0
311 52 -28 0
311 -52 28 0
-312 -53 -29 0
-312 53 29 0
312 53 -29 0
312 -53 29 0
-313 -54 -30 0
-313 54 30 0
313 54 -30 0
313 -54 30 0
-314 -312 -311 0
-314 312 -311 0
-314 -312 311 0
-314 -313 -311 0
-314 -313 -312 311 0
-314 -313 312 311 0
314 313 312 311 0
-315 -55 -31 0
-315 55 31 0
315 55 -31 0
315 -55 31 0
-316 -56 -32 0
-316 56 32 0
316 56 -32 0
316 -56 32 0
-317 314 -310 0
-317 -314 310 0
-317 314 310 0
-317 -316 -315 0
-317 316 -315 0
-317 -316 315 0
318 -315 -314 -310 -295 0
318 -316 315 -314 -310 -295 0
318 -317 316 315 -314 -310 -295 0
317 316 315 -314 -310 -295 0
318 314 -310 -295 0
318 310 -295 0
317 316 315 -314 -310 295 0
318 -317 -306 0
318 317 -306 0
318 -317 306 0
-318 317 306 295 -284 0
-319 -295 284 0
-319 -306 295 284 0
-319 -317 306 295 284 0
-318 317 306 295 284 0
-319 318 317 306 295 284 0
319 -318 -284 0
-319 318 -284 0
-319 318 284 0
319 -192 0

